p cnf 441 1
441 0
w 1 0.513711
w 2 1 1
w 2 -1 0
w 3 2 0
w 3 -2 1
w 4 3 0.760341
w 4 -3 0.407221
w 5 4 0.0374681
w 5 -4 0.335092
w 6 5 0
w 6 -5 1
w 7 6 1
w 7 -6 0
w 8 7 0.424953
w 8 -7 0.51045
w 9 8 0.765247
w 9 -8 0.466284
w 10 9 1
w 10 -9 0
w 11 10 0
w 11 -10 1
w 12 11 0.965292
w 12 -11 0.0658146
w 13 12 0
w 13 -12 1
w 14 13 0
w 14 -13 1
w 15 14 0.00459095
w 15 -14 0.540575
w 16 15 0
w 16 -15 1
w 17 16 0
w 17 -16 1
w 18 17 1
w 18 -17 0
w 19 18 1
w 19 -18 0
w 20 19 1
w 20 -19 0
w 21 20 0
w 21 -20 1
w 22 1 1
w 22 -1 0
w 23 22 2 1
w 23 22 -2 0
w 23 -22 2 0
w 23 -22 -2 0
w 24 23 3 0.614303
w 24 23 -3 0.663863
w 24 -23 3 0.960875
w 24 -23 -3 0.680117
w 25 24 4 1
w 25 24 -4 0
w 25 -24 4 1
w 25 -24 -4 0
w 26 25 5 1
w 26 25 -5 1
w 26 -25 5 0
w 26 -25 -5 0
w 27 26 6 1
w 27 26 -6 1
w 27 -26 6 1
w 27 -26 -6 0
w 28 27 7 1
w 28 27 -7 1
w 28 -27 7 1
w 28 -27 -7 0
w 29 28 8 1
w 29 28 -8 1
w 29 -28 8 0
w 29 -28 -8 1
w 30 29 9 0
w 30 29 -9 0
w 30 -29 9 0
w 30 -29 -9 1
w 31 30 10 0.202178
w 31 30 -10 0.522515
w 31 -30 10 0.0379679
w 31 -30 -10 0.871775
w 32 31 11 1
w 32 31 -11 0
w 32 -31 11 1
w 32 -31 -11 0
w 33 32 12 1
w 33 32 -12 0
w 33 -32 12 1
w 33 -32 -12 1
w 34 33 13 0.420404
w 34 33 -13 0.651254
w 34 -33 13 0.52567
w 34 -33 -13 0.973029
w 35 34 14 0
w 35 34 -14 1
w 35 -34 14 0
w 35 -34 -14 0
w 36 35 15 0
w 36 35 -15 0
w 36 -35 15 0
w 36 -35 -15 1
w 37 36 16 0
w 37 36 -16 1
w 37 -36 16 1
w 37 -36 -16 1
w 38 37 17 0
w 38 37 -17 1
w 38 -37 17 0
w 38 -37 -17 0
w 39 38 18 0
w 39 38 -18 1
w 39 -38 18 0
w 39 -38 -18 1
w 40 39 19 0.227713
w 40 39 -19 0.217232
w 40 -39 19 0.548434
w 40 -39 -19 0.753382
w 41 40 20 1
w 41 40 -20 1
w 41 -40 20 0
w 41 -40 -20 1
w 42 41 21 0
w 42 41 -21 1
w 42 -41 21 1
w 42 -41 -21 1
w 43 22 1
w 43 -22 0
w 44 43 23 0.963173
w 44 43 -23 0.454959
w 44 -43 23 0.125576
w 44 -43 -23 0.288781
w 45 44 24 0.555922
w 45 44 -24 0.076416
w 45 -44 24 0.715189
w 45 -44 -24 0.579304
w 46 45 25 0.545824
w 46 45 -25 0.0451925
w 46 -45 25 0.739489
w 46 -45 -25 0.443004
w 47 46 26 1
w 47 46 -26 1
w 47 -46 26 0
w 47 -46 -26 0
w 48 47 27 0.308639
w 48 47 -27 0.690945
w 48 -47 27 0.358884
w 48 -47 -27 0.74074
w 49 48 28 0
w 49 48 -28 1
w 49 -48 28 1
w 49 -48 -28 0
w 50 49 29 1
w 50 49 -29 0
w 50 -49 29 0
w 50 -49 -29 0
w 51 50 30 1
w 51 50 -30 1
w 51 -50 30 0
w 51 -50 -30 1
w 52 51 31 0
w 52 51 -31 1
w 52 -51 31 0
w 52 -51 -31 0
w 53 52 32 1
w 53 52 -32 1
w 53 -52 32 1
w 53 -52 -32 0
w 54 53 33 1
w 54 53 -33 1
w 54 -53 33 0
w 54 -53 -33 0
w 55 54 34 0
w 55 54 -34 1
w 55 -54 34 1
w 55 -54 -34 0
w 56 55 35 1
w 56 55 -35 1
w 56 -55 35 0
w 56 -55 -35 0
w 57 56 36 0.799371
w 57 56 -36 0.521189
w 57 -56 36 0.702181
w 57 -56 -36 0.854956
w 58 57 37 0.0510686
w 58 57 -37 0.955733
w 58 -57 37 0.938982
w 58 -57 -37 0.842961
w 59 58 38 0
w 59 58 -38 0
w 59 -58 38 0
w 59 -58 -38 1
w 60 59 39 1
w 60 59 -39 1
w 60 -59 39 1
w 60 -59 -39 0
w 61 60 40 1
w 61 60 -40 0
w 61 -60 40 0
w 61 -60 -40 0
w 62 61 41 1
w 62 61 -41 1
w 62 -61 41 1
w 62 -61 -41 0
w 63 62 42 0.237239
w 63 62 -42 0.988551
w 63 -62 42 0.608409
w 63 -62 -42 0.0975799
w 64 43 0
w 64 -43 1
w 65 64 44 0
w 65 64 -44 1
w 65 -64 44 1
w 65 -64 -44 0
w 66 65 45 1
w 66 65 -45 0
w 66 -65 45 0
w 66 -65 -45 0
w 67 66 46 0
w 67 66 -46 1
w 67 -66 46 0
w 67 -66 -46 1
w 68 67 47 0
w 68 67 -47 1
w 68 -67 47 0
w 68 -67 -47 0
w 69 68 48 0.631222
w 69 68 -48 0.212372
w 69 -68 48 0.0922778
w 69 -68 -48 0.384675
w 70 69 49 0
w 70 69 -49 0
w 70 -69 49 1
w 70 -69 -49 0
w 71 70 50 1
w 71 70 -50 0
w 71 -70 50 1
w 71 -70 -50 0
w 72 71 51 1
w 72 71 -51 1
w 72 -71 51 0
w 72 -71 -51 1
w 73 72 52 0.413419
w 73 72 -52 0.0829379
w 73 -72 52 0.777705
w 73 -72 -52 0.531666
w 74 73 53 0.823851
w 74 73 -53 0.436638
w 74 -73 53 0.344232
w 74 -73 -53 0.50099
w 75 74 54 0.150139
w 75 74 -54 0.132212
w 75 -74 54 0.145332
w 75 -74 -54 0.242417
w 76 75 55 1
w 76 75 -55 0
w 76 -75 55 1
w 76 -75 -55 1
w 77 76 56 0
w 77 76 -56 1
w 77 -76 56 1
w 77 -76 -56 0
w 78 77 57 0.591699
w 78 77 -57 0.0827976
w 78 -77 57 0.267191
w 78 -77 -57 0.726358
w 79 78 58 0
w 79 78 -58 1
w 79 -78 58 0
w 79 -78 -58 1
w 80 79 59 0
w 80 79 -59 0
w 80 -79 59 1
w 80 -79 -59 0
w 81 80 60 0
w 81 80 -60 1
w 81 -80 60 1
w 81 -80 -60 0
w 82 81 61 0.322149
w 82 81 -61 0.794909
w 82 -81 61 0.304232
w 82 -81 -61 0.464283
w 83 82 62 1
w 83 82 -62 1
w 83 -82 62 0
w 83 -82 -62 1
w 84 83 63 1
w 84 83 -63 0
w 84 -83 63 0
w 84 -83 -63 1
w 85 64 0
w 85 -64 1
w 86 85 65 1
w 86 85 -65 0
w 86 -85 65 1
w 86 -85 -65 1
w 87 86 66 0.24579
w 87 86 -66 0.0348147
w 87 -86 66 0.0599796
w 87 -86 -66 0.523165
w 88 87 67 0.531642
w 88 87 -67 0.317427
w 88 -87 67 0.0841705
w 88 -87 -67 0.326551
w 89 88 68 0
w 89 88 -68 1
w 89 -88 68 1
w 89 -88 -68 0
w 90 89 69 0
w 90 89 -69 0
w 90 -89 69 1
w 90 -89 -69 0
w 91 90 70 0.805568
w 91 90 -70 0.571043
w 91 -90 70 0.478976
w 91 -90 -70 0.397318
w 92 91 71 1
w 92 91 -71 0
w 92 -91 71 0
w 92 -91 -71 0
w 93 92 72 0
w 93 92 -72 0
w 93 -92 72 1
w 93 -92 -72 1
w 94 93 73 0.451122
w 94 93 -73 0.76178
w 94 -93 73 0.122437
w 94 -93 -73 0.535292
w 95 94 74 1
w 95 94 -74 1
w 95 -94 74 1
w 95 -94 -74 0
w 96 95 75 0.903964
w 96 95 -75 0.619667
w 96 -95 75 0.0717027
w 96 -95 -75 0.798392
w 97 96 76 0.91455
w 97 96 -76 0.60396
w 97 -96 76 0.554296
w 97 -96 -76 0.393526
w 98 97 77 1
w 98 97 -77 1
w 98 -97 77 0
w 98 -97 -77 1
w 99 98 78 0.651675
w 99 98 -78 0.646854
w 99 -98 78 0.54601
w 99 -98 -78 0.881813
w 100 99 79 1
w 100 99 -79 0
w 100 -99 79 1
w 100 -99 -79 1
w 101 100 80 0
w 101 100 -80 0
w 101 -100 80 0
w 101 -100 -80 1
w 102 101 81 0
w 102 101 -81 0
w 102 -101 81 0
w 102 -101 -81 1
w 103 102 82 1
w 103 102 -82 1
w 103 -102 82 1
w 103 -102 -82 0
w 104 103 83 0
w 104 103 -83 1
w 104 -103 83 1
w 104 -103 -83 1
w 105 104 84 0
w 105 104 -84 1
w 105 -104 84 1
w 105 -104 -84 1
w 106 85 0
w 106 -85 1
w 107 106 86 0
w 107 106 -86 1
w 107 -106 86 0
w 107 -106 -86 1
w 108 107 87 0
w 108 107 -87 1
w 108 -107 87 1
w 108 -107 -87 0
w 109 108 88 1
w 109 108 -88 0
w 109 -108 88 1
w 109 -108 -88 0
w 110 109 89 0.199676
w 110 109 -89 0.105812
w 110 -109 89 0.636146
w 110 -109 -89 0.892678
w 111 110 90 1
w 111 110 -90 0
w 111 -110 90 1
w 111 -110 -90 1
w 112 111 91 0.454826
w 112 111 -91 0.839383
w 112 -111 91 0.155067
w 112 -111 -91 0.0658226
w 113 112 92 0
w 113 112 -92 0
w 113 -112 92 1
w 113 -112 -92 1
w 114 113 93 0.407426
w 114 113 -93 0.0447723
w 114 -113 93 0.314092
w 114 -113 -93 0.29023
w 115 114 94 0
w 115 114 -94 0
w 115 -114 94 1
w 115 -114 -94 0
w 116 115 95 1
w 116 115 -95 0
w 116 -115 95 0
w 116 -115 -95 1
w 117 116 96 0.853571
w 117 116 -96 0.305242
w 117 -116 96 0.216358
w 117 -116 -96 0.39441
w 118 117 97 1
w 118 117 -97 1
w 118 -117 97 0
w 118 -117 -97 1
w 119 118 98 1
w 119 118 -98 1
w 119 -118 98 0
w 119 -118 -98 1
w 120 119 99 1
w 120 119 -99 0
w 120 -119 99 0
w 120 -119 -99 1
w 121 120 100 0
w 121 120 -100 1
w 121 -120 100 0
w 121 -120 -100 0
w 122 121 101 0.594726
w 122 121 -101 0.351292
w 122 -121 101 0.0484956
w 122 -121 -101 0.602868
w 123 122 102 0
w 123 122 -102 0
w 123 -122 102 0
w 123 -122 -102 1
w 124 123 103 0.159498
w 124 123 -103 0.53027
w 124 -123 103 0.244017
w 124 -123 -103 0.896505
w 125 124 104 0.658054
w 125 124 -104 0.884632
w 125 -124 104 0.23113
w 125 -124 -104 0.986048
w 126 125 105 1
w 126 125 -105 0
w 126 -125 105 0
w 126 -125 -105 1
w 127 106 0
w 127 -106 1
w 128 127 107 1
w 128 127 -107 1
w 128 -127 107 1
w 128 -127 -107 0
w 129 128 108 0.278503
w 129 128 -108 0.0389045
w 129 -128 108 0.535141
w 129 -128 -108 0.550459
w 130 129 109 0.443251
w 130 129 -109 0.0387741
w 130 -129 109 0.237448
w 130 -129 -109 0.441781
w 131 130 110 0
w 131 130 -110 1
w 131 -130 110 0
w 131 -130 -110 0
w 132 131 111 0.897969
w 132 131 -111 0.3299
w 132 -131 111 0.606987
w 132 -131 -111 0.868535
w 133 132 112 0
w 133 132 -112 0
w 133 -132 112 1
w 133 -132 -112 0
w 134 133 113 0
w 134 133 -113 1
w 134 -133 113 1
w 134 -133 -113 1
w 135 134 114 0.92175
w 135 134 -114 0.386824
w 135 -134 114 0.338105
w 135 -134 -114 0.862722
w 136 135 115 0.37688
w 136 135 -115 0.10017
w 136 -135 115 0.271856
w 136 -135 -115 0.575152
w 137 136 116 0.957654
w 137 136 -116 0.66993
w 137 -136 116 0.534727
w 137 -136 -116 0.301506
w 138 137 117 0
w 138 137 -117 0
w 138 -137 117 0
w 138 -137 -117 1
w 139 138 118 0
w 139 138 -118 0
w 139 -138 118 1
w 139 -138 -118 0
w 140 139 119 0.097814
w 140 139 -119 0.0492029
w 140 -139 119 0.261072
w 140 -139 -119 0.98066
w 141 140 120 0.0487185
w 141 140 -120 0.90241
w 141 -140 120 0.287711
w 141 -140 -120 0.386824
w 142 141 121 0.117786
w 142 141 -121 0.763703
w 142 -141 121 0.865302
w 142 -141 -121 0.389642
w 143 142 122 1
w 143 142 -122 0
w 143 -142 122 0
w 143 -142 -122 0
w 144 143 123 0
w 144 143 -123 0
w 144 -143 123 1
w 144 -143 -123 0
w 145 144 124 0
w 145 144 -124 0
w 145 -144 124 0
w 145 -144 -124 1
w 146 145 125 0
w 146 145 -125 1
w 146 -145 125 0
w 146 -145 -125 1
w 147 146 126 0.542258
w 147 146 -126 0.233561
w 147 -146 126 0.78659
w 147 -146 -126 0.829969
w 148 127 0
w 148 -127 1
w 149 148 128 0.384089
w 149 148 -128 0.417025
w 149 -148 128 0.337398
w 149 -148 -128 0.722944
w 150 149 129 0
w 150 149 -129 0
w 150 -149 129 1
w 150 -149 -129 1
w 151 150 130 0
w 151 150 -130 0
w 151 -150 130 0
w 151 -150 -130 1
w 152 151 131 0.292434
w 152 151 -131 0.0197365
w 152 -151 131 0.358851
w 152 -151 -131 0.216204
w 153 152 132 0.000222643
w 153 152 -132 0.401047
w 153 -152 132 0.807436
w 153 -152 -132 0.542481
w 154 153 133 0
w 154 153 -133 1
w 154 -153 133 0
w 154 -153 -133 0
w 155 154 134 0
w 155 154 -134 0
w 155 -154 134 1
w 155 -154 -134 0
w 156 155 135 0
w 156 155 -135 1
w 156 -155 135 1
w 156 -155 -135 1
w 157 156 136 1
w 157 156 -136 0
w 157 -156 136 0
w 157 -156 -136 1
w 158 157 137 0
w 158 157 -137 1
w 158 -157 137 1
w 158 -157 -137 1
w 159 158 138 0.446518
w 159 158 -138 0.91367
w 159 -158 138 0.280145
w 159 -158 -138 0.253954
w 160 159 139 0
w 160 159 -139 0
w 160 -159 139 1
w 160 -159 -139 0
w 161 160 140 0
w 161 160 -140 0
w 161 -160 140 1
w 161 -160 -140 1
w 162 161 141 1
w 162 161 -141 0
w 162 -161 141 0
w 162 -161 -141 0
w 163 162 142 1
w 163 162 -142 0
w 163 -162 142 1
w 163 -162 -142 1
w 164 163 143 0
w 164 163 -143 0
w 164 -163 143 1
w 164 -163 -143 1
w 165 164 144 0
w 165 164 -144 0
w 165 -164 144 1
w 165 -164 -144 0
w 166 165 145 1
w 166 165 -145 0
w 166 -165 145 0
w 166 -165 -145 0
w 167 166 146 0
w 167 166 -146 0
w 167 -166 146 1
w 167 -166 -146 1
w 168 167 147 0.508947
w 168 167 -147 0.306532
w 168 -167 147 0.171868
w 168 -167 -147 0.909555
w 169 148 1
w 169 -148 0
w 170 169 149 1
w 170 169 -149 0
w 170 -169 149 0
w 170 -169 -149 0
w 171 170 150 0
w 171 170 -150 1
w 171 -170 150 0
w 171 -170 -150 0
w 172 171 151 0
w 172 171 -151 1
w 172 -171 151 0
w 172 -171 -151 0
w 173 172 152 1
w 173 172 -152 0
w 173 -172 152 1
w 173 -172 -152 1
w 174 173 153 0
w 174 173 -153 0
w 174 -173 153 1
w 174 -173 -153 0
w 175 174 154 0.171713
w 175 174 -154 0.462036
w 175 -174 154 0.992404
w 175 -174 -154 0.0918027
w 176 175 155 1
w 176 175 -155 0
w 176 -175 155 0
w 176 -175 -155 0
w 177 176 156 1
w 177 176 -156 1
w 177 -176 156 0
w 177 -176 -156 1
w 178 177 157 1
w 178 177 -157 1
w 178 -177 157 0
w 178 -177 -157 1
w 179 178 158 0.246929
w 179 178 -158 0.00373333
w 179 -178 158 0.151148
w 179 -178 -158 0.0510042
w 180 179 159 0
w 180 179 -159 1
w 180 -179 159 1
w 180 -179 -159 1
w 181 180 160 1
w 181 180 -160 0
w 181 -180 160 0
w 181 -180 -160 0
w 182 181 161 1
w 182 181 -161 0
w 182 -181 161 1
w 182 -181 -161 1
w 183 182 162 0
w 183 182 -162 1
w 183 -182 162 0
w 183 -182 -162 0
w 184 183 163 0.911386
w 184 183 -163 0.663866
w 184 -183 163 0.0698273
w 184 -183 -163 0.869515
w 185 184 164 1
w 185 184 -164 1
w 185 -184 164 0
w 185 -184 -164 0
w 186 185 165 0
w 186 185 -165 1
w 186 -185 165 0
w 186 -185 -165 0
w 187 186 166 0
w 187 186 -166 1
w 187 -186 166 0
w 187 -186 -166 0
w 188 187 167 1
w 188 187 -167 1
w 188 -187 167 1
w 188 -187 -167 0
w 189 188 168 0
w 189 188 -168 1
w 189 -188 168 1
w 189 -188 -168 0
w 190 169 0.647015
w 190 -169 0.313413
w 191 190 170 0.10584
w 191 190 -170 0.63017
w 191 -190 170 0.675332
w 191 -190 -170 0.715812
w 192 191 171 0.94933
w 192 191 -171 0.569521
w 192 -191 171 0.46023
w 192 -191 -171 0.178919
w 193 192 172 1
w 193 192 -172 1
w 193 -192 172 0
w 193 -192 -172 0
w 194 193 173 1
w 194 193 -173 1
w 194 -193 173 0
w 194 -193 -173 0
w 195 194 174 1
w 195 194 -174 1
w 195 -194 174 0
w 195 -194 -174 1
w 196 195 175 1
w 196 195 -175 0
w 196 -195 175 0
w 196 -195 -175 0
w 197 196 176 0.254646
w 197 196 -176 0.642695
w 197 -196 176 0.520342
w 197 -196 -176 0.929978
w 198 197 177 0
w 198 197 -177 0
w 198 -197 177 1
w 198 -197 -177 1
w 199 198 178 1
w 199 198 -178 1
w 199 -198 178 0
w 199 -198 -178 1
w 200 199 179 1
w 200 199 -179 0
w 200 -199 179 0
w 200 -199 -179 1
w 201 200 180 1
w 201 200 -180 1
w 201 -200 180 0
w 201 -200 -180 1
w 202 201 181 1
w 202 201 -181 0
w 202 -201 181 0
w 202 -201 -181 1
w 203 202 182 1
w 203 202 -182 1
w 203 -202 182 0
w 203 -202 -182 1
w 204 203 183 0.029046
w 204 203 -183 0.221517
w 204 -203 183 0.7825
w 204 -203 -183 0.957074
w 205 204 184 0
w 205 204 -184 1
w 205 -204 184 1
w 205 -204 -184 0
w 206 205 185 0
w 206 205 -185 1
w 206 -205 185 0
w 206 -205 -185 1
w 207 206 186 0.546658
w 207 206 -186 0.251895
w 207 -206 186 0.221503
w 207 -206 -186 0.292669
w 208 207 187 0.937474
w 208 207 -187 0.558675
w 208 -207 187 0.344031
w 208 -207 -187 0.230204
w 209 208 188 0
w 209 208 -188 1
w 209 -208 188 0
w 209 -208 -188 0
w 210 209 189 1
w 210 209 -189 0
w 210 -209 189 0
w 210 -209 -189 1
w 211 190 0
w 211 -190 1
w 212 211 191 0
w 212 211 -191 0
w 212 -211 191 0
w 212 -211 -191 1
w 213 212 192 1
w 213 212 -192 0
w 213 -212 192 0
w 213 -212 -192 1
w 214 213 193 0
w 214 213 -193 0
w 214 -213 193 1
w 214 -213 -193 1
w 215 214 194 0
w 215 214 -194 1
w 215 -214 194 0
w 215 -214 -194 0
w 216 215 195 0.148158
w 216 215 -195 0.28541
w 216 -215 195 0.862157
w 216 -215 -195 0.486027
w 217 216 196 0
w 217 216 -196 1
w 217 -216 196 1
w 217 -216 -196 0
w 218 217 197 0
w 218 217 -197 0
w 218 -217 197 0
w 218 -217 -197 1
w 219 218 198 1
w 219 218 -198 1
w 219 -218 198 0
w 219 -218 -198 1
w 220 219 199 0.381887
w 220 219 -199 0.819037
w 220 -219 199 0.359579
w 220 -219 -199 0.985945
w 221 220 200 0
w 221 220 -200 0
w 221 -220 200 1
w 221 -220 -200 0
w 222 221 201 0.73443
w 222 221 -201 0.158242
w 222 -221 201 0.284416
w 222 -221 -201 0.596587
w 223 222 202 1
w 223 222 -202 0
w 223 -222 202 0
w 223 -222 -202 0
w 224 223 203 0.978061
w 224 223 -203 0.404151
w 224 -223 203 0.336147
w 224 -223 -203 0.657941
w 225 224 204 0
w 225 224 -204 1
w 225 -224 204 1
w 225 -224 -204 1
w 226 225 205 0
w 226 225 -205 1
w 226 -225 205 1
w 226 -225 -205 0
w 227 226 206 1
w 227 226 -206 0
w 227 -226 206 0
w 227 -226 -206 0
w 228 227 207 0
w 228 227 -207 1
w 228 -227 207 0
w 228 -227 -207 0
w 229 228 208 1
w 229 228 -208 1
w 229 -228 208 0
w 229 -228 -208 1
w 230 229 209 0.982549
w 230 229 -209 0.189484
w 230 -229 209 0.122995
w 230 -229 -209 0.64049
w 231 230 210 0.0429307
w 231 230 -210 0.905753
w 231 -230 210 0.0989457
w 231 -230 -210 0.29937
w 232 211 0.284794
w 232 -211 0.937697
w 233 232 212 0.830222
w 233 232 -212 0.561969
w 233 -232 212 0.895036
w 233 -232 -212 0.353929
w 234 233 213 1
w 234 233 -213 0
w 234 -233 213 1
w 234 -233 -213 1
w 235 234 214 1
w 235 234 -214 1
w 235 -234 214 0
w 235 -234 -214 0
w 236 235 215 0.920542
w 236 235 -215 0.385206
w 236 -235 215 0.606178
w 236 -235 -215 0.903091
w 237 236 216 0
w 237 236 -216 0
w 237 -236 216 1
w 237 -236 -216 1
w 238 237 217 1
w 238 237 -217 1
w 238 -237 217 0
w 238 -237 -217 1
w 239 238 218 1
w 239 238 -218 0
w 239 -238 218 0
w 239 -238 -218 0
w 240 239 219 1
w 240 239 -219 1
w 240 -239 219 0
w 240 -239 -219 0
w 241 240 220 1
w 241 240 -220 0
w 241 -240 220 1
w 241 -240 -220 1
w 242 241 221 1
w 242 241 -221 1
w 242 -241 221 0
w 242 -241 -221 0
w 243 242 222 0
w 243 242 -222 1
w 243 -242 222 0
w 243 -242 -222 1
w 244 243 223 1
w 244 243 -223 1
w 244 -243 223 0
w 244 -243 -223 0
w 245 244 224 0
w 245 244 -224 0
w 245 -244 224 1
w 245 -244 -224 0
w 246 245 225 1
w 246 245 -225 0
w 246 -245 225 1
w 246 -245 -225 1
w 247 246 226 0
w 247 246 -226 1
w 247 -246 226 0
w 247 -246 -226 1
w 248 247 227 1
w 248 247 -227 0
w 248 -247 227 1
w 248 -247 -227 1
w 249 248 228 0.143426
w 249 248 -228 0.827063
w 249 -248 228 0.767516
w 249 -248 -228 0.649662
w 250 249 229 1
w 250 249 -229 1
w 250 -249 229 0
w 250 -249 -229 1
w 251 250 230 1
w 251 250 -230 1
w 251 -250 230 0
w 251 -250 -230 1
w 252 251 231 0.923745
w 252 251 -231 0.533834
w 252 -251 231 0.326886
w 252 -251 -231 0.97207
w 253 232 1
w 253 -232 0
w 254 253 233 1
w 254 253 -233 1
w 254 -253 233 1
w 254 -253 -233 0
w 255 254 234 0
w 255 254 -234 1
w 255 -254 234 0
w 255 -254 -234 0
w 256 255 235 0
w 256 255 -235 0
w 256 -255 235 1
w 256 -255 -235 0
w 257 256 236 1
w 257 256 -236 1
w 257 -256 236 0
w 257 -256 -236 1
w 258 257 237 1
w 258 257 -237 0
w 258 -257 237 1
w 258 -257 -237 1
w 259 258 238 1
w 259 258 -238 0
w 259 -258 238 1
w 259 -258 -238 1
w 260 259 239 0
w 260 259 -239 0
w 260 -259 239 0
w 260 -259 -239 1
w 261 260 240 0.319751
w 261 260 -240 0.501471
w 261 -260 240 0.432278
w 261 -260 -240 0.832991
w 262 261 241 0.80264
w 262 261 -241 0.113747
w 262 -261 241 0.892867
w 262 -261 -241 0.603339
w 263 262 242 0
w 263 262 -242 0
w 263 -262 242 0
w 263 -262 -242 1
w 264 263 243 0
w 264 263 -243 1
w 264 -263 243 0
w 264 -263 -243 1
w 265 264 244 1
w 265 264 -244 1
w 265 -264 244 0
w 265 -264 -244 1
w 266 265 245 0
w 266 265 -245 1
w 266 -265 245 1
w 266 -265 -245 1
w 267 266 246 0.730089
w 267 266 -246 0.158151
w 267 -266 246 0.375478
w 267 -266 -246 0.56308
w 268 267 247 1
w 268 267 -247 0
w 268 -267 247 1
w 268 -267 -247 0
w 269 268 248 1
w 269 268 -248 0
w 269 -268 248 0
w 269 -268 -248 0
w 270 269 249 1
w 270 269 -249 0
w 270 -269 249 0
w 270 -269 -249 0
w 271 270 250 0.0425752
w 271 270 -250 0.66749
w 271 -270 250 0.549746
w 271 -270 -250 0.282575
w 272 271 251 0
w 272 271 -251 0
w 272 -271 251 0
w 272 -271 -251 1
w 273 272 252 1
w 273 272 -252 0
w 273 -272 252 0
w 273 -272 -252 0
w 274 253 1
w 274 -253 0
w 275 274 254 1
w 275 274 -254 1
w 275 -274 254 0
w 275 -274 -254 0
w 276 275 255 0
w 276 275 -255 0
w 276 -275 255 0
w 276 -275 -255 1
w 277 276 256 0
w 277 276 -256 1
w 277 -276 256 1
w 277 -276 -256 1
w 278 277 257 1
w 278 277 -257 1
w 278 -277 257 1
w 278 -277 -257 0
w 279 278 258 0.143281
w 279 278 -258 0.837551
w 279 -278 258 0.247195
w 279 -278 -258 0.520839
w 280 279 259 1
w 280 279 -259 1
w 280 -279 259 0
w 280 -279 -259 0
w 281 280 260 0
w 281 280 -260 1
w 281 -280 260 0
w 281 -280 -260 0
w 282 281 261 1
w 282 281 -261 0
w 282 -281 261 0
w 282 -281 -261 0
w 283 282 262 0.353424
w 283 282 -262 0.809172
w 283 -282 262 0.308016
w 283 -282 -262 0.330911
w 284 283 263 0
w 284 283 -263 1
w 284 -283 263 0
w 284 -283 -263 0
w 285 284 264 1
w 285 284 -264 1
w 285 -284 264 1
w 285 -284 -264 0
w 286 285 265 0
w 286 285 -265 1
w 286 -285 265 0
w 286 -285 -265 1
w 287 286 266 1
w 287 286 -266 0
w 287 -286 266 0
w 287 -286 -266 0
w 288 287 267 0
w 288 287 -267 0
w 288 -287 267 1
w 288 -287 -267 1
w 289 288 268 0
w 289 288 -268 0
w 289 -288 268 0
w 289 -288 -268 1
w 290 289 269 1
w 290 289 -269 1
w 290 -289 269 0
w 290 -289 -269 0
w 291 290 270 1
w 291 290 -270 0
w 291 -290 270 1
w 291 -290 -270 1
w 292 291 271 0
w 292 291 -271 1
w 292 -291 271 1
w 292 -291 -271 0
w 293 292 272 0
w 293 292 -272 1
w 293 -292 272 1
w 293 -292 -272 1
w 294 293 273 0
w 294 293 -273 1
w 294 -293 273 1
w 294 -293 -273 1
w 295 274 1
w 295 -274 0
w 296 295 275 0
w 296 295 -275 1
w 296 -295 275 1
w 296 -295 -275 1
w 297 296 276 1
w 297 296 -276 0
w 297 -296 276 1
w 297 -296 -276 0
w 298 297 277 0.483452
w 298 297 -277 0.891026
w 298 -297 277 0.553132
w 298 -297 -277 0.677568
w 299 298 278 0.2745
w 299 298 -278 0.0836411
w 299 -298 278 0.333527
w 299 -298 -278 0.903422
w 300 299 279 0.811165
w 300 299 -279 0.360734
w 300 -299 279 0.147367
w 300 -299 -279 0.517734
w 301 300 280 1
w 301 300 -280 1
w 301 -300 280 1
w 301 -300 -280 0
w 302 301 281 1
w 302 301 -281 1
w 302 -301 281 0
w 302 -301 -281 0
w 303 302 282 0.954168
w 303 302 -282 0.159711
w 303 -302 282 0.786704
w 303 -302 -282 0.902962
w 304 303 283 0.608378
w 304 303 -283 0.386414
w 304 -303 283 0.649124
w 304 -303 -283 0.16151
w 305 304 284 0
w 305 304 -284 0
w 305 -304 284 0
w 305 -304 -284 1
w 306 305 285 0
w 306 305 -285 1
w 306 -305 285 0
w 306 -305 -285 1
w 307 306 286 0.241121
w 307 306 -286 0.434621
w 307 -306 286 0.1346
w 307 -306 -286 0.719093
w 308 307 287 1
w 308 307 -287 0
w 308 -307 287 1
w 308 -307 -287 1
w 309 308 288 0
w 309 308 -288 0
w 309 -308 288 1
w 309 -308 -288 1
w 310 309 289 1
w 310 309 -289 1
w 310 -309 289 0
w 310 -309 -289 1
w 311 310 290 1
w 311 310 -290 0
w 311 -310 290 0
w 311 -310 -290 0
w 312 311 291 0.832157
w 312 311 -291 0.134984
w 312 -311 291 0.147732
w 312 -311 -291 0.0558791
w 313 312 292 0.388853
w 313 312 -292 0.4905
w 313 -312 292 0.0346969
w 313 -312 -292 0.107947
w 314 313 293 0
w 314 313 -293 1
w 314 -313 293 0
w 314 -313 -293 0
w 315 314 294 1
w 315 314 -294 0
w 315 -314 294 0
w 315 -314 -294 0
w 316 295 1
w 316 -295 0
w 317 316 296 1
w 317 316 -296 0
w 317 -316 296 0
w 317 -316 -296 1
w 318 317 297 0
w 318 317 -297 0
w 318 -317 297 0
w 318 -317 -297 1
w 319 318 298 0
w 319 318 -298 1
w 319 -318 298 0
w 319 -318 -298 0
w 320 319 299 1
w 320 319 -299 1
w 320 -319 299 0
w 320 -319 -299 0
w 321 320 300 0.00883771
w 321 320 -300 0.337611
w 321 -320 300 0.700868
w 321 -320 -300 0.410748
w 322 321 301 0
w 322 321 -301 1
w 322 -321 301 0
w 322 -321 -301 0
w 323 322 302 0
w 323 322 -302 0
w 323 -322 302 1
w 323 -322 -302 1
w 324 323 303 0
w 324 323 -303 1
w 324 -323 303 0
w 324 -323 -303 1
w 325 324 304 0
w 325 324 -304 0
w 325 -324 304 0
w 325 -324 -304 1
w 326 325 305 1
w 326 325 -305 0
w 326 -325 305 1
w 326 -325 -305 0
w 327 326 306 1
w 327 326 -306 1
w 327 -326 306 0
w 327 -326 -306 1
w 328 327 307 1
w 328 327 -307 1
w 328 -327 307 0
w 328 -327 -307 1
w 329 328 308 1
w 329 328 -308 0
w 329 -328 308 0
w 329 -328 -308 1
w 330 329 309 0
w 330 329 -309 0
w 330 -329 309 1
w 330 -329 -309 1
w 331 330 310 0.0729226
w 331 330 -310 0.328508
w 331 -330 310 0.116704
w 331 -330 -310 0.663623
w 332 331 311 0
w 332 331 -311 1
w 332 -331 311 0
w 332 -331 -311 0
w 333 332 312 0.615414
w 333 332 -312 0.0925394
w 333 -332 312 0.928849
w 333 -332 -312 0.0309258
w 334 333 313 1
w 334 333 -313 1
w 334 -333 313 1
w 334 -333 -313 0
w 335 334 314 0.974263
w 335 334 -314 0.783035
w 335 -334 314 0.306784
w 335 -334 -314 0.740436
w 336 335 315 1
w 336 335 -315 0
w 336 -335 315 1
w 336 -335 -315 0
w 337 316 0
w 337 -316 1
w 338 337 317 0.885531
w 338 337 -317 0.396218
w 338 -337 317 0.572696
w 338 -337 -317 0.500253
w 339 338 318 1
w 339 338 -318 0
w 339 -338 318 0
w 339 -338 -318 0
w 340 339 319 1
w 340 339 -319 0
w 340 -339 319 0
w 340 -339 -319 0
w 341 340 320 1
w 341 340 -320 1
w 341 -340 320 0
w 341 -340 -320 1
w 342 341 321 0
w 342 341 -321 0
w 342 -341 321 1
w 342 -341 -321 1
w 343 342 322 1
w 343 342 -322 0
w 343 -342 322 1
w 343 -342 -322 0
w 344 343 323 0
w 344 343 -323 1
w 344 -343 323 1
w 344 -343 -323 0
w 345 344 324 1
w 345 344 -324 1
w 345 -344 324 0
w 345 -344 -324 1
w 346 345 325 0
w 346 345 -325 0
w 346 -345 325 1
w 346 -345 -325 0
w 347 346 326 1
w 347 346 -326 0
w 347 -346 326 0
w 347 -346 -326 1
w 348 347 327 0
w 348 347 -327 1
w 348 -347 327 1
w 348 -347 -327 1
w 349 348 328 0
w 349 348 -328 1
w 349 -348 328 1
w 349 -348 -328 1
w 350 349 329 1
w 350 349 -329 0
w 350 -349 329 1
w 350 -349 -329 0
w 351 350 330 0
w 351 350 -330 1
w 351 -350 330 1
w 351 -350 -330 1
w 352 351 331 1
w 352 351 -331 0
w 352 -351 331 0
w 352 -351 -331 1
w 353 352 332 0
w 353 352 -332 1
w 353 -352 332 0
w 353 -352 -332 0
w 354 353 333 0
w 354 353 -333 0
w 354 -353 333 1
w 354 -353 -333 1
w 355 354 334 0.642487
w 355 354 -334 0.900855
w 355 -354 334 0.485061
w 355 -354 -334 0.135634
w 356 355 335 1
w 356 355 -335 0
w 356 -355 335 0
w 356 -355 -335 1
w 357 356 336 0
w 357 356 -336 0
w 357 -356 336 1
w 357 -356 -336 0
w 358 337 0
w 358 -337 1
w 359 358 338 0
w 359 358 -338 1
w 359 -358 338 0
w 359 -358 -338 0
w 360 359 339 0.0631908
w 360 359 -339 0.503467
w 360 -359 339 0.425242
w 360 -359 -339 0.289946
w 361 360 340 0
w 361 360 -340 1
w 361 -360 340 1
w 361 -360 -340 1
w 362 361 341 0
w 362 361 -341 1
w 362 -361 341 0
w 362 -361 -341 0
w 363 362 342 1
w 363 362 -342 0
w 363 -362 342 1
w 363 -362 -342 1
w 364 363 343 1
w 364 363 -343 0
w 364 -363 343 0
w 364 -363 -343 1
w 365 364 344 1
w 365 364 -344 1
w 365 -364 344 1
w 365 -364 -344 0
w 366 365 345 0.55297
w 366 365 -345 0.804316
w 366 -365 345 0.404915
w 366 -365 -345 0.842916
w 367 366 346 0
w 367 366 -346 0
w 367 -366 346 0
w 367 -366 -346 1
w 368 367 347 0
w 368 367 -347 1
w 368 -367 347 0
w 368 -367 -347 1
w 369 368 348 1
w 369 368 -348 0
w 369 -368 348 0
w 369 -368 -348 0
w 370 369 349 0
w 370 369 -349 1
w 370 -369 349 0
w 370 -369 -349 1
w 371 370 350 0.798593
w 371 370 -350 0.0770069
w 371 -370 350 0.035912
w 371 -370 -350 0.288371
w 372 371 351 0
w 372 371 -351 1
w 372 -371 351 1
w 372 -371 -351 1
w 373 372 352 0
w 373 372 -352 1
w 373 -372 352 1
w 373 -372 -352 0
w 374 373 353 0.0730925
w 374 373 -353 0.930248
w 374 -373 353 0.883157
w 374 -373 -353 0.346984
w 375 374 354 1
w 375 374 -354 1
w 375 -374 354 0
w 375 -374 -354 1
w 376 375 355 0
w 376 375 -355 0
w 376 -375 355 0
w 376 -375 -355 1
w 377 376 356 0
w 377 376 -356 0
w 377 -376 356 1
w 377 -376 -356 1
w 378 377 357 1
w 378 377 -357 1
w 378 -377 357 1
w 378 -377 -357 0
w 379 358 1
w 379 -358 0
w 380 379 359 1
w 380 379 -359 0
w 380 -379 359 0
w 380 -379 -359 0
w 381 380 360 1
w 381 380 -360 0
w 381 -380 360 1
w 381 -380 -360 1
w 382 381 361 0.732974
w 382 381 -361 0.6143
w 382 -381 361 0.657421
w 382 -381 -361 0.435238
w 383 382 362 1
w 383 382 -362 0
w 383 -382 362 1
w 383 -382 -362 0
w 384 383 363 1
w 384 383 -363 1
w 384 -383 363 0
w 384 -383 -363 1
w 385 384 364 1
w 385 384 -364 0
w 385 -384 364 0
w 385 -384 -364 0
w 386 385 365 0
w 386 385 -365 0
w 386 -385 365 0
w 386 -385 -365 1
w 387 386 366 0.890317
w 387 386 -366 0.230806
w 387 -386 366 0.213534
w 387 -386 -366 0.646823
w 388 387 367 0.827833
w 388 387 -367 0.304243
w 388 -387 367 0.399018
w 388 -387 -367 0.10128
w 389 388 368 1
w 389 388 -368 1
w 389 -388 368 1
w 389 -388 -368 0
w 390 389 369 1
w 390 389 -369 0
w 390 -389 369 0
w 390 -389 -369 0
w 391 390 370 0
w 391 390 -370 1
w 391 -390 370 1
w 391 -390 -370 0
w 392 391 371 1
w 392 391 -371 1
w 392 -391 371 1
w 392 -391 -371 0
w 393 392 372 0.802778
w 393 392 -372 0.135908
w 393 -392 372 0.188933
w 393 -392 -372 0.4496
w 394 393 373 0
w 394 393 -373 1
w 394 -393 373 1
w 394 -393 -373 0
w 395 394 374 0.189037
w 395 394 -374 0.542851
w 395 -394 374 0.825889
w 395 -394 -374 0.985868
w 396 395 375 0
w 396 395 -375 1
w 396 -395 375 1
w 396 -395 -375 1
w 397 396 376 0
w 397 396 -376 1
w 397 -396 376 0
w 397 -396 -376 1
w 398 397 377 1
w 398 397 -377 0
w 398 -397 377 1
w 398 -397 -377 0
w 399 398 378 0
w 399 398 -378 1
w 399 -398 378 1
w 399 -398 -378 0
w 400 379 0
w 400 -379 1
w 401 400 380 0.430541
w 401 400 -380 0.380291
w 401 -400 380 0.111717
w 401 -400 -380 0.268159
w 402 401 381 0
w 402 401 -381 1
w 402 -401 381 1
w 402 -401 -381 0
w 403 402 382 0
w 403 402 -382 1
w 403 -402 382 1
w 403 -402 -382 1
w 404 403 383 0
w 404 403 -383 1
w 404 -403 383 0
w 404 -403 -383 0
w 405 404 384 1
w 405 404 -384 0
w 405 -404 384 0
w 405 -404 -384 1
w 406 405 385 0.633273
w 406 405 -385 0.960653
w 406 -405 385 0.463695
w 406 -405 -385 0.514857
w 407 406 386 0.894236
w 407 406 -386 0.895148
w 407 -406 386 0.0660422
w 407 -406 -386 0.162395
w 408 407 387 1
w 408 407 -387 1
w 408 -407 387 1
w 408 -407 -387 0
w 409 408 388 1
w 409 408 -388 0
w 409 -408 388 1
w 409 -408 -388 0
w 410 409 389 1
w 410 409 -389 1
w 410 -409 389 1
w 410 -409 -389 0
w 411 410 390 1
w 411 410 -390 0
w 411 -410 390 0
w 411 -410 -390 0
w 412 411 391 1
w 412 411 -391 0
w 412 -411 391 1
w 412 -411 -391 1
w 413 412 392 0
w 413 412 -392 1
w 413 -412 392 0
w 413 -412 -392 0
w 414 413 393 1
w 414 413 -393 1
w 414 -413 393 1
w 414 -413 -393 0
w 415 414 394 1
w 415 414 -394 1
w 415 -414 394 1
w 415 -414 -394 0
w 416 415 395 0
w 416 415 -395 1
w 416 -415 395 1
w 416 -415 -395 0
w 417 416 396 0.212088
w 417 416 -396 0.937955
w 417 -416 396 0.220774
w 417 -416 -396 0.169333
w 418 417 397 0
w 418 417 -397 0
w 418 -417 397 0
w 418 -417 -397 1
w 419 418 398 0.406294
w 419 418 -398 0.150033
w 419 -418 398 0.865748
w 419 -418 -398 0.584884
w 420 419 399 1
w 420 419 -399 0
w 420 -419 399 1
w 420 -419 -399 1
w 421 400 0.602648
w 421 -400 0.615251
w 422 421 401 1
w 422 421 -401 0
w 422 -421 401 0
w 422 -421 -401 0
w 423 422 402 1
w 423 422 -402 0
w 423 -422 402 0
w 423 -422 -402 0
w 424 423 403 0
w 424 423 -403 1
w 424 -423 403 0
w 424 -423 -403 0
w 425 424 404 0
w 425 424 -404 0
w 425 -424 404 1
w 425 -424 -404 1
w 426 425 405 0.852278
w 426 425 -405 0.462512
w 426 -425 405 0.689489
w 426 -425 -405 0.183025
w 427 426 406 0.20837
w 427 426 -406 0.99844
w 427 -426 406 0.844908
w 427 -426 -406 0.811018
w 428 427 407 1
w 428 427 -407 0
w 428 -427 407 1
w 428 -427 -407 1
w 429 428 408 0
w 429 428 -408 1
w 429 -428 408 1
w 429 -428 -408 0
w 430 429 409 1
w 430 429 -409 1
w 430 -429 409 1
w 430 -429 -409 0
w 431 430 410 1
w 431 430 -410 0
w 431 -430 410 0
w 431 -430 -410 1
w 432 431 411 0.880518
w 432 431 -411 0.000115173
w 432 -431 411 0.589005
w 432 -431 -411 0.0635424
w 433 432 412 0.797375
w 433 432 -412 0.0619828
w 433 -432 412 0.791619
w 433 -432 -412 0.608393
w 434 433 413 0
w 434 433 -413 0
w 434 -433 413 0
w 434 -433 -413 1
w 435 434 414 0.220261
w 435 434 -414 0.0582214
w 435 -434 414 0.92717
w 435 -434 -414 0.405964
w 436 435 415 1
w 436 435 -415 1
w 436 -435 415 0
w 436 -435 -415 0
w 437 436 416 0
w 437 436 -416 0
w 437 -436 416 1
w 437 -436 -416 0
w 438 437 417 0
w 438 437 -417 1
w 438 -437 417 0
w 438 -437 -417 1
w 439 438 418 0
w 439 438 -418 1
w 439 -438 418 0
w 439 -438 -418 1
w 440 439 419 0
w 440 439 -419 1
w 440 -439 419 0
w 440 -439 -419 0
w 441 440 420 1
w 441 440 -420 1
w 441 -440 420 1
w 441 -440 -420 0